\LP file generated from the problem `Install1' by the
\Xpress Builder Component Library Xpress BCL

Maximize
CTR: 50 O_0 - 20 N_0_0 - 80 N_1_0 + 50 O_1 - 20 N_0_1 - 80 N_1_1 + 50 O_2 - 
20 N_0_2 - 80 N_1_2

Subject To
Onl_2: O_2 - f_0_3_0 - f_1_3_0 - f_0_3_1 - f_1_3_1 - f_0_3_2 - f_1_3_2 - f_0_3_3 - 
f_1_3_3 - f_0_3_4 - f_1_3_4 - f_0_3_5 - f_1_3_5 - f_0_3_6 - f_1_3_6 - f_0_3_7 - 
f_1_3_7 = 0
Onl_1: O_1 - f_0_3_0 - f_1_3_0 - f_0_3_1 - f_1_3_1 - f_0_3_2 - f_1_3_2 - f_0_3_3 - 
f_1_3_3 = 0
Onl_0: O_0 = 0
Hav_1_2_11: N_1_2 - n_1_11 >= 0
Nee_1_11: - n_1_10 + f_0_1_10 + f_1_1_10 + n_1_11 - s_0_1_11 - s_1_1_11 = 0
Hav_1_2_10: N_1_2 - n_1_10 >= 0
Nee_1_10: - n_1_9 + f_0_1_9 + f_1_1_9 + n_1_10 - s_0_1_10 - s_1_1_10 = 0
Hav_1_2_9: N_1_2 - n_1_9 >= 0
Nee_1_9: - n_1_8 + f_0_1_8 + f_1_1_8 + n_1_9 - s_0_1_9 - s_1_1_9 = 0
Hav_1_2_8: N_1_2 - n_1_8 >= 0
Nee_1_8: - n_1_7 + f_0_1_7 + f_1_1_7 + n_1_8 - s_0_1_8 - s_1_1_8 = 0
Hav_1_1_7: N_1_1 - n_1_7 >= 0
Nee_1_7: - n_1_6 + f_0_1_6 + f_1_1_6 + n_1_7 - s_0_1_7 - s_1_1_7 = 0
Hav_1_1_6: N_1_1 - n_1_6 >= 0
Nee_1_6: - n_1_5 + f_0_1_5 + f_1_1_5 + n_1_6 - s_0_1_6 - s_1_1_6 = 0
Hav_1_1_5: N_1_1 - n_1_5 >= 0
Nee_1_5: - n_1_4 + f_0_1_4 + f_1_1_4 + n_1_5 - s_0_1_5 - s_1_1_5 = 0
Hav_1_1_4: N_1_1 - n_1_4 >= 0
Nee_1_4: - n_1_3 + f_0_1_3 + f_1_1_3 + n_1_4 - s_0_1_4 - s_1_1_4 = 0
Hav_1_0_3: N_1_0 - n_1_3 >= 0
Nee_1_3: - n_1_2 + f_0_1_2 + f_1_1_2 + n_1_3 - s_0_1_3 - s_1_1_3 = 0
Hav_1_0_2: N_1_0 - n_1_2 >= 0
Nee_1_2: - n_1_1 + f_0_1_1 + f_1_1_1 + n_1_2 - s_0_1_2 - s_1_1_2 = 0
Hav_1_0_1: N_1_0 - n_1_1 >= 0
Nee_1_1: - n_1_0 + f_0_1_0 + f_1_1_0 + n_1_1 - s_0_1_1 - s_1_1_1 = 0
Hav_1_0_0: N_1_0 - n_1_0 >= 0
Nee_1_0: n_1_0 - s_0_1_0 - s_1_1_0 = 0
Hav_0_2_11: N_0_2 - n_0_11 >= 0
Nee_0_11: - n_0_10 + 2 f_0_0_10 + f_0_1_10 + 2 f_0_2_10 + f_0_3_10 + 2 f_1_0_10 + 
f_1_1_10 + 2 f_1_2_10 + f_1_3_10 + n_0_11 - 2 s_0_0_11 - s_0_1_11 - 2 s_0_2_11 - 
s_0_3_11 - 2 s_1_0_11 - s_1_1_11 - 2 s_1_2_11 - s_1_3_11 = 0
Hav_0_2_10: N_0_2 - n_0_10 >= 0
Nee_0_10: - n_0_9 + 2 f_0_0_9 + f_0_1_9 + 2 f_0_2_9 + f_0_3_9 + 2 f_1_0_9 + 
f_1_1_9 + 2 f_1_2_9 + f_1_3_9 + n_0_10 - 2 s_0_0_10 - s_0_1_10 - 2 s_0_2_10 - 
s_0_3_10 - 2 s_1_0_10 - s_1_1_10 - 2 s_1_2_10 - s_1_3_10 = 0
Hav_0_2_9: N_0_2 - n_0_9 >= 0
Nee_0_9: - n_0_8 + 2 f_0_0_8 + f_0_1_8 + 2 f_0_2_8 + f_0_3_8 + 2 f_1_0_8 + f_1_1_8 + 
2 f_1_2_8 + f_1_3_8 + n_0_9 - 2 s_0_0_9 - s_0_1_9 - 2 s_0_2_9 - s_0_3_9 - 2 s_1_0_9 - 
s_1_1_9 - 2 s_1_2_9 - s_1_3_9 = 0
Hav_0_2_8: N_0_2 - n_0_8 >= 0
Nee_0_8: - n_0_7 + 2 f_0_0_7 + f_0_1_7 + 2 f_0_2_7 + f_0_3_7 + 2 f_1_0_7 + f_1_1_7 + 
2 f_1_2_7 + f_1_3_7 + n_0_8 - 2 s_0_0_8 - s_0_1_8 - 2 s_0_2_8 - s_0_3_8 - 2 s_1_0_8 - 
s_1_1_8 - 2 s_1_2_8 - s_1_3_8 = 0
Hav_0_1_7: N_0_1 - n_0_7 >= 0
Nee_0_7: - n_0_6 + 2 f_0_0_6 + f_0_1_6 + 2 f_0_2_6 + f_0_3_6 + 2 f_1_0_6 + f_1_1_6 + 
2 f_1_2_6 + f_1_3_6 + n_0_7 - 2 s_0_0_7 - s_0_1_7 - 2 s_0_2_7 - s_0_3_7 - 2 s_1_0_7 - 
s_1_1_7 - 2 s_1_2_7 - s_1_3_7 = 0
Hav_0_1_6: N_0_1 - n_0_6 >= 0
Nee_0_6: - n_0_5 + 2 f_0_0_5 + f_0_1_5 + 2 f_0_2_5 + f_0_3_5 + 2 f_1_0_5 + f_1_1_5 + 
2 f_1_2_5 + f_1_3_5 + n_0_6 - 2 s_0_0_6 - s_0_1_6 - 2 s_0_2_6 - s_0_3_6 - 2 s_1_0_6 - 
s_1_1_6 - 2 s_1_2_6 - s_1_3_6 = 0
Hav_0_1_5: N_0_1 - n_0_5 >= 0
Nee_0_5: - n_0_4 + 2 f_0_0_4 + f_0_1_4 + 2 f_0_2_4 + f_0_3_4 + 2 f_1_0_4 + f_1_1_4 + 
2 f_1_2_4 + f_1_3_4 + n_0_5 - 2 s_0_0_5 - s_0_1_5 - 2 s_0_2_5 - s_0_3_5 - 2 s_1_0_5 - 
s_1_1_5 - 2 s_1_2_5 - s_1_3_5 = 0
Hav_0_1_4: N_0_1 - n_0_4 >= 0
Nee_0_4: - n_0_3 + 2 f_0_0_3 + f_0_1_3 + 2 f_0_2_3 + f_0_3_3 + 2 f_1_0_3 + f_1_1_3 + 
2 f_1_2_3 + f_1_3_3 + n_0_4 - 2 s_0_0_4 - s_0_1_4 - 2 s_0_2_4 - s_0_3_4 - 2 s_1_0_4 - 
s_1_1_4 - 2 s_1_2_4 - s_1_3_4 = 0
Hav_0_0_3: N_0_0 - n_0_3 >= 0
Nee_0_3: - n_0_2 + 2 f_0_0_2 + f_0_1_2 + 2 f_0_2_2 + f_0_3_2 + 2 f_1_0_2 + f_1_1_2 + 
2 f_1_2_2 + f_1_3_2 + n_0_3 - 2 s_0_0_3 - s_0_1_3 - 2 s_0_2_3 - s_0_3_3 - 2 s_1_0_3 - 
s_1_1_3 - 2 s_1_2_3 - s_1_3_3 = 0
Hav_0_0_2: N_0_0 - n_0_2 >= 0
Nee_0_2: - n_0_1 + 2 f_0_0_1 + f_0_1_1 + 2 f_0_2_1 + f_0_3_1 + 2 f_1_0_1 + f_1_1_1 + 
2 f_1_2_1 + f_1_3_1 + n_0_2 - 2 s_0_0_2 - s_0_1_2 - 2 s_0_2_2 - s_0_3_2 - 2 s_1_0_2 - 
s_1_1_2 - 2 s_1_2_2 - s_1_3_2 = 0
Hav_0_0_1: N_0_0 - n_0_1 >= 0
Nee_0_1: - n_0_0 + 2 f_0_0_0 + f_0_1_0 + 2 f_0_2_0 + f_0_3_0 + 2 f_1_0_0 + f_1_1_0 + 
2 f_1_2_0 + f_1_3_0 + n_0_1 - 2 s_0_0_1 - s_0_1_1 - 2 s_0_2_1 - s_0_3_1 - 2 s_1_0_1 - 
s_1_1_1 - 2 s_1_2_1 - s_1_3_1 = 0
Hav_0_0_0: N_0_0 - n_0_0 >= 0
Nee_0_0: n_0_0 - 2 s_0_0_0 - s_0_1_0 - 2 s_0_2_0 - s_0_3_0 - 2 s_1_0_0 - s_1_1_0 - 
2 s_1_2_0 - s_1_3_0 = 0
Dur_1_3_11: s_1_3_11 - f_1_3_11 <= 0
Dur_1_3_10: s_1_3_10 - f_1_3_10 <= 0
Dur_1_3_9: s_1_3_9 - f_1_3_9 <= 0
Dur_1_3_8: s_1_3_8 - f_1_3_8 <= 0
Dur_1_3_7: s_1_3_7 - f_1_3_7 <= 0
Dur_1_3_6: s_1_3_6 - f_1_3_6 <= 0
Dur_1_3_5: s_1_3_5 - f_1_3_5 <= 0
Dur_1_3_4: s_1_3_4 - f_1_3_4 <= 0
Dur_1_3_3: s_1_3_3 - f_1_3_3 <= 0
Dur_1_3_2: s_1_3_2 - f_1_3_2 <= 0
Dur_1_3_1: s_1_3_1 - f_1_3_1 <= 0
Dur_1_3_0: s_1_3_0 - f_1_3_0 <= 0
Dur_1_2_11: - f_1_3_0 + s_1_2_11 <= 0
Dur_1_2_10: s_1_2_10 - f_1_2_11 <= 0
Dur_1_2_9: s_1_2_9 - f_1_2_10 <= 0
Dur_1_2_8: s_1_2_8 - f_1_2_9 <= 0
Dur_1_2_7: s_1_2_7 - f_1_2_8 <= 0
Dur_1_2_6: s_1_2_6 - f_1_2_7 <= 0
Dur_1_2_5: s_1_2_5 - f_1_2_6 <= 0
Dur_1_2_4: s_1_2_4 - f_1_2_5 <= 0
Dur_1_2_3: s_1_2_3 - f_1_2_4 <= 0
Dur_1_2_2: s_1_2_2 - f_1_2_3 <= 0
Dur_1_2_1: s_1_2_1 - f_1_2_2 <= 0
Dur_1_2_0: s_1_2_0 - f_1_2_1 <= 0
Dur_1_1_11: - f_1_2_2 + s_1_1_11 <= 0
Dur_1_1_10: - f_1_2_1 + s_1_1_10 <= 0
Dur_1_1_9: - f_1_2_0 + s_1_1_9 <= 0
Dur_1_1_8: s_1_1_8 - f_1_1_11 <= 0
Dur_1_1_7: s_1_1_7 - f_1_1_10 <= 0
Dur_1_1_6: s_1_1_6 - f_1_1_9 <= 0
Dur_1_1_5: s_1_1_5 - f_1_1_8 <= 0
Dur_1_1_4: s_1_1_4 - f_1_1_7 <= 0
Dur_1_1_3: s_1_1_3 - f_1_1_6 <= 0
Dur_1_1_2: s_1_1_2 - f_1_1_5 <= 0
Dur_1_1_1: s_1_1_1 - f_1_1_4 <= 0
Dur_1_1_0: s_1_1_0 - f_1_1_3 <= 0
Dur_1_0_11: - f_1_1_0 + s_1_0_11 <= 0
Dur_1_0_10: s_1_0_10 - f_1_0_11 <= 0
Dur_1_0_9: s_1_0_9 - f_1_0_10 <= 0
Dur_1_0_8: s_1_0_8 - f_1_0_9 <= 0
Dur_1_0_7: s_1_0_7 - f_1_0_8 <= 0
Dur_1_0_6: s_1_0_6 - f_1_0_7 <= 0
Dur_1_0_5: s_1_0_5 - f_1_0_6 <= 0
Dur_1_0_4: s_1_0_4 - f_1_0_5 <= 0
Dur_1_0_3: s_1_0_3 - f_1_0_4 <= 0
Dur_1_0_2: s_1_0_2 - f_1_0_3 <= 0
Dur_1_0_1: s_1_0_1 - f_1_0_2 <= 0
Dur_1_0_0: s_1_0_0 - f_1_0_1 <= 0
Dur_0_3_11: s_0_3_11 - f_0_3_11 <= 0
Dur_0_3_10: s_0_3_10 - f_0_3_10 <= 0
Dur_0_3_9: s_0_3_9 - f_0_3_9 <= 0
Dur_0_3_8: s_0_3_8 - f_0_3_8 <= 0
Dur_0_3_7: s_0_3_7 - f_0_3_7 <= 0
Dur_0_3_6: s_0_3_6 - f_0_3_6 <= 0
Dur_0_3_5: s_0_3_5 - f_0_3_5 <= 0
Dur_0_3_4: s_0_3_4 - f_0_3_4 <= 0
Dur_0_3_3: s_0_3_3 - f_0_3_3 <= 0
Dur_0_3_2: s_0_3_2 - f_0_3_2 <= 0
Dur_0_3_1: s_0_3_1 - f_0_3_1 <= 0
Dur_0_3_0: s_0_3_0 - f_0_3_0 <= 0
Dur_0_2_11: - f_0_3_0 + s_0_2_11 <= 0
Dur_0_2_10: s_0_2_10 - f_0_2_11 <= 0
Dur_0_2_9: s_0_2_9 - f_0_2_10 <= 0
Dur_0_2_8: s_0_2_8 - f_0_2_9 <= 0
Dur_0_2_7: s_0_2_7 - f_0_2_8 <= 0
Dur_0_2_6: s_0_2_6 - f_0_2_7 <= 0
Dur_0_2_5: s_0_2_5 - f_0_2_6 <= 0
Dur_0_2_4: s_0_2_4 - f_0_2_5 <= 0
Dur_0_2_3: s_0_2_3 - f_0_2_4 <= 0
Dur_0_2_2: s_0_2_2 - f_0_2_3 <= 0
Dur_0_2_1: s_0_2_1 - f_0_2_2 <= 0
Dur_0_2_0: s_0_2_0 - f_0_2_1 <= 0
Dur_0_1_11: - f_0_2_2 + s_0_1_11 <= 0
Dur_0_1_10: - f_0_2_1 + s_0_1_10 <= 0
Dur_0_1_9: - f_0_2_0 + s_0_1_9 <= 0
Dur_0_1_8: s_0_1_8 - f_0_1_11 <= 0
Dur_0_1_7: s_0_1_7 - f_0_1_10 <= 0
Dur_0_1_6: s_0_1_6 - f_0_1_9 <= 0
Dur_0_1_5: s_0_1_5 - f_0_1_8 <= 0
Dur_0_1_4: s_0_1_4 - f_0_1_7 <= 0
Dur_0_1_3: s_0_1_3 - f_0_1_6 <= 0
Dur_0_1_2: s_0_1_2 - f_0_1_5 <= 0
Dur_0_1_1: s_0_1_1 - f_0_1_4 <= 0
Dur_0_1_0: s_0_1_0 - f_0_1_3 <= 0
Dur_0_0_11: - f_0_1_0 + s_0_0_11 <= 0
Dur_0_0_10: s_0_0_10 - f_0_0_11 <= 0
Dur_0_0_9: s_0_0_9 - f_0_0_10 <= 0
Dur_0_0_8: s_0_0_8 - f_0_0_9 <= 0
Dur_0_0_7: s_0_0_7 - f_0_0_8 <= 0
Dur_0_0_6: s_0_0_6 - f_0_0_7 <= 0
Dur_0_0_5: s_0_0_5 - f_0_0_6 <= 0
Dur_0_0_4: s_0_0_4 - f_0_0_5 <= 0
Dur_0_0_3: s_0_0_3 - f_0_0_4 <= 0
Dur_0_0_2: s_0_0_2 - f_0_0_3 <= 0
Dur_0_0_1: s_0_0_1 - f_0_0_2 <= 0
Dur_0_0_0: s_0_0_0 - f_0_0_1 <= 0
Prec_1_2_11: - f_1_2_0 + s_1_3_0 - f_1_2_1 + s_1_3_1 - f_1_2_2 + s_1_3_2 - f_1_2_3 + 
s_1_3_3 - f_1_2_4 + s_1_3_4 - f_1_2_5 + s_1_3_5 - f_1_2_6 + s_1_3_6 - f_1_2_7 + 
s_1_3_7 - f_1_2_8 + s_1_3_8 - f_1_2_9 + s_1_3_9 - f_1_2_10 + s_1_3_10 - f_1_2_11 + 
s_1_3_11 <= 0
Prec_1_2_10: - f_1_2_0 + s_1_3_0 - f_1_2_1 + s_1_3_1 - f_1_2_2 + s_1_3_2 - f_1_2_3 + 
s_1_3_3 - f_1_2_4 + s_1_3_4 - f_1_2_5 + s_1_3_5 - f_1_2_6 + s_1_3_6 - f_1_2_7 + 
s_1_3_7 - f_1_2_8 + s_1_3_8 - f_1_2_9 + s_1_3_9 - f_1_2_10 + s_1_3_10 <= 0
Prec_1_2_9: - f_1_2_0 + s_1_3_0 - f_1_2_1 + s_1_3_1 - f_1_2_2 + s_1_3_2 - f_1_2_3 + 
s_1_3_3 - f_1_2_4 + s_1_3_4 - f_1_2_5 + s_1_3_5 - f_1_2_6 + s_1_3_6 - f_1_2_7 + 
s_1_3_7 - f_1_2_8 + s_1_3_8 - f_1_2_9 + s_1_3_9 <= 0
Prec_1_2_8: - f_1_2_0 + s_1_3_0 - f_1_2_1 + s_1_3_1 - f_1_2_2 + s_1_3_2 - f_1_2_3 + 
s_1_3_3 - f_1_2_4 + s_1_3_4 - f_1_2_5 + s_1_3_5 - f_1_2_6 + s_1_3_6 - f_1_2_7 + 
s_1_3_7 - f_1_2_8 + s_1_3_8 <= 0
Prec_1_2_7: - f_1_2_0 + s_1_3_0 - f_1_2_1 + s_1_3_1 - f_1_2_2 + s_1_3_2 - f_1_2_3 + 
s_1_3_3 - f_1_2_4 + s_1_3_4 - f_1_2_5 + s_1_3_5 - f_1_2_6 + s_1_3_6 - f_1_2_7 + 
s_1_3_7 <= 0
Prec_1_2_6: - f_1_2_0 + s_1_3_0 - f_1_2_1 + s_1_3_1 - f_1_2_2 + s_1_3_2 - f_1_2_3 + 
s_1_3_3 - f_1_2_4 + s_1_3_4 - f_1_2_5 + s_1_3_5 - f_1_2_6 + s_1_3_6 <= 0
Prec_1_2_5: - f_1_2_0 + s_1_3_0 - f_1_2_1 + s_1_3_1 - f_1_2_2 + s_1_3_2 - f_1_2_3 + 
s_1_3_3 - f_1_2_4 + s_1_3_4 - f_1_2_5 + s_1_3_5 <= 0
Prec_1_2_4: - f_1_2_0 + s_1_3_0 - f_1_2_1 + s_1_3_1 - f_1_2_2 + s_1_3_2 - f_1_2_3 + 
s_1_3_3 - f_1_2_4 + s_1_3_4 <= 0
Prec_1_2_3: - f_1_2_0 + s_1_3_0 - f_1_2_1 + s_1_3_1 - f_1_2_2 + s_1_3_2 - f_1_2_3 + 
s_1_3_3 <= 0
Prec_1_2_2: - f_1_2_0 + s_1_3_0 - f_1_2_1 + s_1_3_1 - f_1_2_2 + s_1_3_2 <= 0
Prec_1_2_1: - f_1_2_0 + s_1_3_0 - f_1_2_1 + s_1_3_1 <= 0
Prec_1_2_0: - f_1_2_0 + s_1_3_0 <= 0
Prec_1_1_11: - f_1_1_0 + s_1_2_0 - f_1_1_1 + s_1_2_1 - f_1_1_2 + s_1_2_2 - f_1_1_3 + 
s_1_2_3 - f_1_1_4 + s_1_2_4 - f_1_1_5 + s_1_2_5 - f_1_1_6 + s_1_2_6 - f_1_1_7 + 
s_1_2_7 - f_1_1_8 + s_1_2_8 - f_1_1_9 + s_1_2_9 - f_1_1_10 + s_1_2_10 - f_1_1_11 + 
s_1_2_11 <= 0
Prec_1_1_10: - f_1_1_0 + s_1_2_0 - f_1_1_1 + s_1_2_1 - f_1_1_2 + s_1_2_2 - f_1_1_3 + 
s_1_2_3 - f_1_1_4 + s_1_2_4 - f_1_1_5 + s_1_2_5 - f_1_1_6 + s_1_2_6 - f_1_1_7 + 
s_1_2_7 - f_1_1_8 + s_1_2_8 - f_1_1_9 + s_1_2_9 - f_1_1_10 + s_1_2_10 <= 0
Prec_1_1_9: - f_1_1_0 + s_1_2_0 - f_1_1_1 + s_1_2_1 - f_1_1_2 + s_1_2_2 - f_1_1_3 + 
s_1_2_3 - f_1_1_4 + s_1_2_4 - f_1_1_5 + s_1_2_5 - f_1_1_6 + s_1_2_6 - f_1_1_7 + 
s_1_2_7 - f_1_1_8 + s_1_2_8 - f_1_1_9 + s_1_2_9 <= 0
Prec_1_1_8: - f_1_1_0 + s_1_2_0 - f_1_1_1 + s_1_2_1 - f_1_1_2 + s_1_2_2 - f_1_1_3 + 
s_1_2_3 - f_1_1_4 + s_1_2_4 - f_1_1_5 + s_1_2_5 - f_1_1_6 + s_1_2_6 - f_1_1_7 + 
s_1_2_7 - f_1_1_8 + s_1_2_8 <= 0
Prec_1_1_7: - f_1_1_0 + s_1_2_0 - f_1_1_1 + s_1_2_1 - f_1_1_2 + s_1_2_2 - f_1_1_3 + 
s_1_2_3 - f_1_1_4 + s_1_2_4 - f_1_1_5 + s_1_2_5 - f_1_1_6 + s_1_2_6 - f_1_1_7 + 
s_1_2_7 <= 0
Prec_1_1_6: - f_1_1_0 + s_1_2_0 - f_1_1_1 + s_1_2_1 - f_1_1_2 + s_1_2_2 - f_1_1_3 + 
s_1_2_3 - f_1_1_4 + s_1_2_4 - f_1_1_5 + s_1_2_5 - f_1_1_6 + s_1_2_6 <= 0
Prec_1_1_5: - f_1_1_0 + s_1_2_0 - f_1_1_1 + s_1_2_1 - f_1_1_2 + s_1_2_2 - f_1_1_3 + 
s_1_2_3 - f_1_1_4 + s_1_2_4 - f_1_1_5 + s_1_2_5 <= 0
Prec_1_1_4: - f_1_1_0 + s_1_2_0 - f_1_1_1 + s_1_2_1 - f_1_1_2 + s_1_2_2 - f_1_1_3 + 
s_1_2_3 - f_1_1_4 + s_1_2_4 <= 0
Prec_1_1_3: - f_1_1_0 + s_1_2_0 - f_1_1_1 + s_1_2_1 - f_1_1_2 + s_1_2_2 - f_1_1_3 + 
s_1_2_3 <= 0
Prec_1_1_2: - f_1_1_0 + s_1_2_0 - f_1_1_1 + s_1_2_1 - f_1_1_2 + s_1_2_2 <= 0
Prec_1_1_1: - f_1_1_0 + s_1_2_0 - f_1_1_1 + s_1_2_1 <= 0
Prec_1_1_0: - f_1_1_0 + s_1_2_0 <= 0
Prec_1_0_11: - f_1_0_0 + s_1_3_0 - f_1_0_1 + s_1_3_1 - f_1_0_2 + s_1_3_2 - f_1_0_3 + 
s_1_3_3 - f_1_0_4 + s_1_3_4 - f_1_0_5 + s_1_3_5 - f_1_0_6 + s_1_3_6 - f_1_0_7 + 
s_1_3_7 - f_1_0_8 + s_1_3_8 - f_1_0_9 + s_1_3_9 - f_1_0_10 + s_1_3_10 - f_1_0_11 + 
s_1_3_11 <= 0
Prec_1_0_10: - f_1_0_0 + s_1_3_0 - f_1_0_1 + s_1_3_1 - f_1_0_2 + s_1_3_2 - f_1_0_3 + 
s_1_3_3 - f_1_0_4 + s_1_3_4 - f_1_0_5 + s_1_3_5 - f_1_0_6 + s_1_3_6 - f_1_0_7 + 
s_1_3_7 - f_1_0_8 + s_1_3_8 - f_1_0_9 + s_1_3_9 - f_1_0_10 + s_1_3_10 <= 0
Prec_1_0_9: - f_1_0_0 + s_1_3_0 - f_1_0_1 + s_1_3_1 - f_1_0_2 + s_1_3_2 - f_1_0_3 + 
s_1_3_3 - f_1_0_4 + s_1_3_4 - f_1_0_5 + s_1_3_5 - f_1_0_6 + s_1_3_6 - f_1_0_7 + 
s_1_3_7 - f_1_0_8 + s_1_3_8 - f_1_0_9 + s_1_3_9 <= 0
Prec_1_0_8: - f_1_0_0 + s_1_3_0 - f_1_0_1 + s_1_3_1 - f_1_0_2 + s_1_3_2 - f_1_0_3 + 
s_1_3_3 - f_1_0_4 + s_1_3_4 - f_1_0_5 + s_1_3_5 - f_1_0_6 + s_1_3_6 - f_1_0_7 + 
s_1_3_7 - f_1_0_8 + s_1_3_8 <= 0
Prec_1_0_7: - f_1_0_0 + s_1_3_0 - f_1_0_1 + s_1_3_1 - f_1_0_2 + s_1_3_2 - f_1_0_3 + 
s_1_3_3 - f_1_0_4 + s_1_3_4 - f_1_0_5 + s_1_3_5 - f_1_0_6 + s_1_3_6 - f_1_0_7 + 
s_1_3_7 <= 0
Prec_1_0_6: - f_1_0_0 + s_1_3_0 - f_1_0_1 + s_1_3_1 - f_1_0_2 + s_1_3_2 - f_1_0_3 + 
s_1_3_3 - f_1_0_4 + s_1_3_4 - f_1_0_5 + s_1_3_5 - f_1_0_6 + s_1_3_6 <= 0
Prec_1_0_5: - f_1_0_0 + s_1_3_0 - f_1_0_1 + s_1_3_1 - f_1_0_2 + s_1_3_2 - f_1_0_3 + 
s_1_3_3 - f_1_0_4 + s_1_3_4 - f_1_0_5 + s_1_3_5 <= 0
Prec_1_0_4: - f_1_0_0 + s_1_3_0 - f_1_0_1 + s_1_3_1 - f_1_0_2 + s_1_3_2 - f_1_0_3 + 
s_1_3_3 - f_1_0_4 + s_1_3_4 <= 0
Prec_1_0_3: - f_1_0_0 + s_1_3_0 - f_1_0_1 + s_1_3_1 - f_1_0_2 + s_1_3_2 - f_1_0_3 + 
s_1_3_3 <= 0
Prec_1_0_2: - f_1_0_0 + s_1_3_0 - f_1_0_1 + s_1_3_1 - f_1_0_2 + s_1_3_2 <= 0
Prec_1_0_1: - f_1_0_0 + s_1_3_0 - f_1_0_1 + s_1_3_1 <= 0
Prec_1_0_0: - f_1_0_0 + s_1_3_0 <= 0
Prec_0_2_11: - f_0_2_0 + s_0_3_0 - f_0_2_1 + s_0_3_1 - f_0_2_2 + s_0_3_2 - f_0_2_3 + 
s_0_3_3 - f_0_2_4 + s_0_3_4 - f_0_2_5 + s_0_3_5 - f_0_2_6 + s_0_3_6 - f_0_2_7 + 
s_0_3_7 - f_0_2_8 + s_0_3_8 - f_0_2_9 + s_0_3_9 - f_0_2_10 + s_0_3_10 - f_0_2_11 + 
s_0_3_11 <= 0
Prec_0_2_10: - f_0_2_0 + s_0_3_0 - f_0_2_1 + s_0_3_1 - f_0_2_2 + s_0_3_2 - f_0_2_3 + 
s_0_3_3 - f_0_2_4 + s_0_3_4 - f_0_2_5 + s_0_3_5 - f_0_2_6 + s_0_3_6 - f_0_2_7 + 
s_0_3_7 - f_0_2_8 + s_0_3_8 - f_0_2_9 + s_0_3_9 - f_0_2_10 + s_0_3_10 <= 0
Prec_0_2_9: - f_0_2_0 + s_0_3_0 - f_0_2_1 + s_0_3_1 - f_0_2_2 + s_0_3_2 - f_0_2_3 + 
s_0_3_3 - f_0_2_4 + s_0_3_4 - f_0_2_5 + s_0_3_5 - f_0_2_6 + s_0_3_6 - f_0_2_7 + 
s_0_3_7 - f_0_2_8 + s_0_3_8 - f_0_2_9 + s_0_3_9 <= 0
Prec_0_2_8: - f_0_2_0 + s_0_3_0 - f_0_2_1 + s_0_3_1 - f_0_2_2 + s_0_3_2 - f_0_2_3 + 
s_0_3_3 - f_0_2_4 + s_0_3_4 - f_0_2_5 + s_0_3_5 - f_0_2_6 + s_0_3_6 - f_0_2_7 + 
s_0_3_7 - f_0_2_8 + s_0_3_8 <= 0
Prec_0_2_7: - f_0_2_0 + s_0_3_0 - f_0_2_1 + s_0_3_1 - f_0_2_2 + s_0_3_2 - f_0_2_3 + 
s_0_3_3 - f_0_2_4 + s_0_3_4 - f_0_2_5 + s_0_3_5 - f_0_2_6 + s_0_3_6 - f_0_2_7 + 
s_0_3_7 <= 0
Prec_0_2_6: - f_0_2_0 + s_0_3_0 - f_0_2_1 + s_0_3_1 - f_0_2_2 + s_0_3_2 - f_0_2_3 + 
s_0_3_3 - f_0_2_4 + s_0_3_4 - f_0_2_5 + s_0_3_5 - f_0_2_6 + s_0_3_6 <= 0
Prec_0_2_5: - f_0_2_0 + s_0_3_0 - f_0_2_1 + s_0_3_1 - f_0_2_2 + s_0_3_2 - f_0_2_3 + 
s_0_3_3 - f_0_2_4 + s_0_3_4 - f_0_2_5 + s_0_3_5 <= 0
Prec_0_2_4: - f_0_2_0 + s_0_3_0 - f_0_2_1 + s_0_3_1 - f_0_2_2 + s_0_3_2 - f_0_2_3 + 
s_0_3_3 - f_0_2_4 + s_0_3_4 <= 0
Prec_0_2_3: - f_0_2_0 + s_0_3_0 - f_0_2_1 + s_0_3_1 - f_0_2_2 + s_0_3_2 - f_0_2_3 + 
s_0_3_3 <= 0
Prec_0_2_2: - f_0_2_0 + s_0_3_0 - f_0_2_1 + s_0_3_1 - f_0_2_2 + s_0_3_2 <= 0
Prec_0_2_1: - f_0_2_0 + s_0_3_0 - f_0_2_1 + s_0_3_1 <= 0
Prec_0_2_0: - f_0_2_0 + s_0_3_0 <= 0
Prec_0_1_11: - f_0_1_0 + s_0_2_0 - f_0_1_1 + s_0_2_1 - f_0_1_2 + s_0_2_2 - f_0_1_3 + 
s_0_2_3 - f_0_1_4 + s_0_2_4 - f_0_1_5 + s_0_2_5 - f_0_1_6 + s_0_2_6 - f_0_1_7 + 
s_0_2_7 - f_0_1_8 + s_0_2_8 - f_0_1_9 + s_0_2_9 - f_0_1_10 + s_0_2_10 - f_0_1_11 + 
s_0_2_11 <= 0
Prec_0_1_10: - f_0_1_0 + s_0_2_0 - f_0_1_1 + s_0_2_1 - f_0_1_2 + s_0_2_2 - f_0_1_3 + 
s_0_2_3 - f_0_1_4 + s_0_2_4 - f_0_1_5 + s_0_2_5 - f_0_1_6 + s_0_2_6 - f_0_1_7 + 
s_0_2_7 - f_0_1_8 + s_0_2_8 - f_0_1_9 + s_0_2_9 - f_0_1_10 + s_0_2_10 <= 0
Prec_0_1_9: - f_0_1_0 + s_0_2_0 - f_0_1_1 + s_0_2_1 - f_0_1_2 + s_0_2_2 - f_0_1_3 + 
s_0_2_3 - f_0_1_4 + s_0_2_4 - f_0_1_5 + s_0_2_5 - f_0_1_6 + s_0_2_6 - f_0_1_7 + 
s_0_2_7 - f_0_1_8 + s_0_2_8 - f_0_1_9 + s_0_2_9 <= 0
Prec_0_1_8: - f_0_1_0 + s_0_2_0 - f_0_1_1 + s_0_2_1 - f_0_1_2 + s_0_2_2 - f_0_1_3 + 
s_0_2_3 - f_0_1_4 + s_0_2_4 - f_0_1_5 + s_0_2_5 - f_0_1_6 + s_0_2_6 - f_0_1_7 + 
s_0_2_7 - f_0_1_8 + s_0_2_8 <= 0
Prec_0_1_7: - f_0_1_0 + s_0_2_0 - f_0_1_1 + s_0_2_1 - f_0_1_2 + s_0_2_2 - f_0_1_3 + 
s_0_2_3 - f_0_1_4 + s_0_2_4 - f_0_1_5 + s_0_2_5 - f_0_1_6 + s_0_2_6 - f_0_1_7 + 
s_0_2_7 <= 0
Prec_0_1_6: - f_0_1_0 + s_0_2_0 - f_0_1_1 + s_0_2_1 - f_0_1_2 + s_0_2_2 - f_0_1_3 + 
s_0_2_3 - f_0_1_4 + s_0_2_4 - f_0_1_5 + s_0_2_5 - f_0_1_6 + s_0_2_6 <= 0
Prec_0_1_5: - f_0_1_0 + s_0_2_0 - f_0_1_1 + s_0_2_1 - f_0_1_2 + s_0_2_2 - f_0_1_3 + 
s_0_2_3 - f_0_1_4 + s_0_2_4 - f_0_1_5 + s_0_2_5 <= 0
Prec_0_1_4: - f_0_1_0 + s_0_2_0 - f_0_1_1 + s_0_2_1 - f_0_1_2 + s_0_2_2 - f_0_1_3 + 
s_0_2_3 - f_0_1_4 + s_0_2_4 <= 0
Prec_0_1_3: - f_0_1_0 + s_0_2_0 - f_0_1_1 + s_0_2_1 - f_0_1_2 + s_0_2_2 - f_0_1_3 + 
s_0_2_3 <= 0
Prec_0_1_2: - f_0_1_0 + s_0_2_0 - f_0_1_1 + s_0_2_1 - f_0_1_2 + s_0_2_2 <= 0
Prec_0_1_1: - f_0_1_0 + s_0_2_0 - f_0_1_1 + s_0_2_1 <= 0
Prec_0_1_0: - f_0_1_0 + s_0_2_0 <= 0
Prec_0_0_11: - f_0_0_0 + s_0_3_0 - f_0_0_1 + s_0_3_1 - f_0_0_2 + s_0_3_2 - f_0_0_3 + 
s_0_3_3 - f_0_0_4 + s_0_3_4 - f_0_0_5 + s_0_3_5 - f_0_0_6 + s_0_3_6 - f_0_0_7 + 
s_0_3_7 - f_0_0_8 + s_0_3_8 - f_0_0_9 + s_0_3_9 - f_0_0_10 + s_0_3_10 - f_0_0_11 + 
s_0_3_11 <= 0
Prec_0_0_10: - f_0_0_0 + s_0_3_0 - f_0_0_1 + s_0_3_1 - f_0_0_2 + s_0_3_2 - f_0_0_3 + 
s_0_3_3 - f_0_0_4 + s_0_3_4 - f_0_0_5 + s_0_3_5 - f_0_0_6 + s_0_3_6 - f_0_0_7 + 
s_0_3_7 - f_0_0_8 + s_0_3_8 - f_0_0_9 + s_0_3_9 - f_0_0_10 + s_0_3_10 <= 0
Prec_0_0_9: - f_0_0_0 + s_0_3_0 - f_0_0_1 + s_0_3_1 - f_0_0_2 + s_0_3_2 - f_0_0_3 + 
s_0_3_3 - f_0_0_4 + s_0_3_4 - f_0_0_5 + s_0_3_5 - f_0_0_6 + s_0_3_6 - f_0_0_7 + 
s_0_3_7 - f_0_0_8 + s_0_3_8 - f_0_0_9 + s_0_3_9 <= 0
Prec_0_0_8: - f_0_0_0 + s_0_3_0 - f_0_0_1 + s_0_3_1 - f_0_0_2 + s_0_3_2 - f_0_0_3 + 
s_0_3_3 - f_0_0_4 + s_0_3_4 - f_0_0_5 + s_0_3_5 - f_0_0_6 + s_0_3_6 - f_0_0_7 + 
s_0_3_7 - f_0_0_8 + s_0_3_8 <= 0
Prec_0_0_7: - f_0_0_0 + s_0_3_0 - f_0_0_1 + s_0_3_1 - f_0_0_2 + s_0_3_2 - f_0_0_3 + 
s_0_3_3 - f_0_0_4 + s_0_3_4 - f_0_0_5 + s_0_3_5 - f_0_0_6 + s_0_3_6 - f_0_0_7 + 
s_0_3_7 <= 0
Prec_0_0_6: - f_0_0_0 + s_0_3_0 - f_0_0_1 + s_0_3_1 - f_0_0_2 + s_0_3_2 - f_0_0_3 + 
s_0_3_3 - f_0_0_4 + s_0_3_4 - f_0_0_5 + s_0_3_5 - f_0_0_6 + s_0_3_6 <= 0
Prec_0_0_5: - f_0_0_0 + s_0_3_0 - f_0_0_1 + s_0_3_1 - f_0_0_2 + s_0_3_2 - f_0_0_3 + 
s_0_3_3 - f_0_0_4 + s_0_3_4 - f_0_0_5 + s_0_3_5 <= 0
Prec_0_0_4: - f_0_0_0 + s_0_3_0 - f_0_0_1 + s_0_3_1 - f_0_0_2 + s_0_3_2 - f_0_0_3 + 
s_0_3_3 - f_0_0_4 + s_0_3_4 <= 0
Prec_0_0_3: - f_0_0_0 + s_0_3_0 - f_0_0_1 + s_0_3_1 - f_0_0_2 + s_0_3_2 - f_0_0_3 + 
s_0_3_3 <= 0
Prec_0_0_2: - f_0_0_0 + s_0_3_0 - f_0_0_1 + s_0_3_1 - f_0_0_2 + s_0_3_2 <= 0
Prec_0_0_1: - f_0_0_0 + s_0_3_0 - f_0_0_1 + s_0_3_1 <= 0
Prec_0_0_0: - f_0_0_0 + s_0_3_0 <= 0
Fin_1_3: f_1_3_0 + f_1_3_1 + f_1_3_2 + f_1_3_3 + f_1_3_4 + f_1_3_5 + f_1_3_6 + 
f_1_3_7 + f_1_3_8 + f_1_3_9 + f_1_3_10 + f_1_3_11 = 1
Sta_1_3: s_1_3_0 + s_1_3_1 + s_1_3_2 + s_1_3_3 + s_1_3_4 + s_1_3_5 + s_1_3_6 + 
s_1_3_7 + s_1_3_8 + s_1_3_9 + s_1_3_10 + s_1_3_11 = 1
Fin_1_2: f_1_2_0 + f_1_2_1 + f_1_2_2 + f_1_2_3 + f_1_2_4 + f_1_2_5 + f_1_2_6 + 
f_1_2_7 + f_1_2_8 + f_1_2_9 + f_1_2_10 + f_1_2_11 = 1
Sta_1_2: s_1_2_0 + s_1_2_1 + s_1_2_2 + s_1_2_3 + s_1_2_4 + s_1_2_5 + s_1_2_6 + 
s_1_2_7 + s_1_2_8 + s_1_2_9 + s_1_2_10 + s_1_2_11 = 1
Fin_1_1: f_1_1_0 + f_1_1_1 + f_1_1_2 + f_1_1_3 + f_1_1_4 + f_1_1_5 + f_1_1_6 + 
f_1_1_7 + f_1_1_8 + f_1_1_9 + f_1_1_10 + f_1_1_11 = 1
Sta_1_1: s_1_1_0 + s_1_1_1 + s_1_1_2 + s_1_1_3 + s_1_1_4 + s_1_1_5 + s_1_1_6 + 
s_1_1_7 + s_1_1_8 + s_1_1_9 + s_1_1_10 + s_1_1_11 = 1
Fin_1_0: f_1_0_0 + f_1_0_1 + f_1_0_2 + f_1_0_3 + f_1_0_4 + f_1_0_5 + f_1_0_6 + 
f_1_0_7 + f_1_0_8 + f_1_0_9 + f_1_0_10 + f_1_0_11 = 1
Sta_1_0: s_1_0_0 + s_1_0_1 + s_1_0_2 + s_1_0_3 + s_1_0_4 + s_1_0_5 + s_1_0_6 + 
s_1_0_7 + s_1_0_8 + s_1_0_9 + s_1_0_10 + s_1_0_11 = 1
Fin_0_3: f_0_3_0 + f_0_3_1 + f_0_3_2 + f_0_3_3 + f_0_3_4 + f_0_3_5 + f_0_3_6 + 
f_0_3_7 + f_0_3_8 + f_0_3_9 + f_0_3_10 + f_0_3_11 = 1
Sta_0_3: s_0_3_0 + s_0_3_1 + s_0_3_2 + s_0_3_3 + s_0_3_4 + s_0_3_5 + s_0_3_6 + 
s_0_3_7 + s_0_3_8 + s_0_3_9 + s_0_3_10 + s_0_3_11 = 1
Fin_0_2: f_0_2_0 + f_0_2_1 + f_0_2_2 + f_0_2_3 + f_0_2_4 + f_0_2_5 + f_0_2_6 + 
f_0_2_7 + f_0_2_8 + f_0_2_9 + f_0_2_10 + f_0_2_11 = 1
Sta_0_2: s_0_2_0 + s_0_2_1 + s_0_2_2 + s_0_2_3 + s_0_2_4 + s_0_2_5 + s_0_2_6 + 
s_0_2_7 + s_0_2_8 + s_0_2_9 + s_0_2_10 + s_0_2_11 = 1
Fin_0_1: f_0_1_0 + f_0_1_1 + f_0_1_2 + f_0_1_3 + f_0_1_4 + f_0_1_5 + f_0_1_6 + 
f_0_1_7 + f_0_1_8 + f_0_1_9 + f_0_1_10 + f_0_1_11 = 1
Sta_0_1: s_0_1_0 + s_0_1_1 + s_0_1_2 + s_0_1_3 + s_0_1_4 + s_0_1_5 + s_0_1_6 + 
s_0_1_7 + s_0_1_8 + s_0_1_9 + s_0_1_10 + s_0_1_11 = 1
Fin_0_0: f_0_0_0 + f_0_0_1 + f_0_0_2 + f_0_0_3 + f_0_0_4 + f_0_0_5 + f_0_0_6 + 
f_0_0_7 + f_0_0_8 + f_0_0_9 + f_0_0_10 + f_0_0_11 = 1
Sta_0_0: s_0_0_0 + s_0_0_1 + s_0_0_2 + s_0_0_3 + s_0_0_4 + s_0_0_5 + s_0_0_6 + 
s_0_0_7 + s_0_0_8 + s_0_0_9 + s_0_0_10 + s_0_0_11 = 1

Bounds
O_0 <= infinity
N_0_0 <= 3
O_1 <= infinity
N_0_1 <= 3
O_2 <= infinity
N_0_2 <= 4
n_0_0 <= infinity
n_1_0 <= infinity
n_0_1 <= infinity
n_1_1 <= infinity
n_0_2 <= infinity
n_1_2 <= infinity
n_0_3 <= infinity
n_1_3 <= infinity
n_0_4 <= infinity
n_1_4 <= infinity
n_0_5 <= infinity
n_1_5 <= infinity
n_0_6 <= infinity
n_1_6 <= infinity
n_0_7 <= infinity
n_1_7 <= infinity
n_0_8 <= infinity
n_1_8 <= infinity
n_0_9 <= infinity
n_1_9 <= infinity
n_0_10 <= infinity
n_1_10 <= infinity
n_0_11 <= infinity
n_1_11 <= infinity

Integers
O_0 N_0_0 N_1_0 O_1 N_0_1 N_1_1 O_2 N_0_2 N_1_2 n_0_0 n_1_0 n_0_1 n_1_1 n_0_2 
n_1_2 n_0_3 n_1_3 n_0_4 n_1_4 n_0_5 n_1_5 n_0_6 n_1_6 n_0_7 n_1_7 n_0_8 n_1_8 
n_0_9 n_1_9 n_0_10 n_1_10 n_0_11 n_1_11 

Binaries
s_0_0_0 f_0_0_0 s_0_1_0 f_0_1_0 s_0_2_0 f_0_2_0 s_0_3_0 f_0_3_0 s_1_0_0 f_1_0_0 
s_1_1_0 f_1_1_0 s_1_2_0 f_1_2_0 s_1_3_0 f_1_3_0 s_0_0_1 f_0_0_1 s_0_1_1 f_0_1_1 
s_0_2_1 f_0_2_1 s_0_3_1 f_0_3_1 s_1_0_1 f_1_0_1 s_1_1_1 f_1_1_1 s_1_2_1 f_1_2_1 
s_1_3_1 f_1_3_1 s_0_0_2 f_0_0_2 s_0_1_2 f_0_1_2 s_0_2_2 f_0_2_2 s_0_3_2 f_0_3_2 
s_1_0_2 f_1_0_2 s_1_1_2 f_1_1_2 s_1_2_2 f_1_2_2 s_1_3_2 f_1_3_2 s_0_0_3 f_0_0_3 
s_0_1_3 f_0_1_3 s_0_2_3 f_0_2_3 s_0_3_3 f_0_3_3 s_1_0_3 f_1_0_3 s_1_1_3 f_1_1_3 
s_1_2_3 f_1_2_3 s_1_3_3 f_1_3_3 s_0_0_4 f_0_0_4 s_0_1_4 f_0_1_4 s_0_2_4 f_0_2_4 
s_0_3_4 f_0_3_4 s_1_0_4 f_1_0_4 s_1_1_4 f_1_1_4 s_1_2_4 f_1_2_4 s_1_3_4 f_1_3_4 
s_0_0_5 f_0_0_5 s_0_1_5 f_0_1_5 s_0_2_5 f_0_2_5 s_0_3_5 f_0_3_5 s_1_0_5 f_1_0_5 
s_1_1_5 f_1_1_5 s_1_2_5 f_1_2_5 s_1_3_5 f_1_3_5 s_0_0_6 f_0_0_6 s_0_1_6 f_0_1_6 
s_0_2_6 f_0_2_6 s_0_3_6 f_0_3_6 s_1_0_6 f_1_0_6 s_1_1_6 f_1_1_6 s_1_2_6 f_1_2_6 
s_1_3_6 f_1_3_6 s_0_0_7 f_0_0_7 s_0_1_7 f_0_1_7 s_0_2_7 f_0_2_7 s_0_3_7 f_0_3_7 
s_1_0_7 f_1_0_7 s_1_1_7 f_1_1_7 s_1_2_7 f_1_2_7 s_1_3_7 f_1_3_7 s_0_0_8 f_0_0_8 
s_0_1_8 f_0_1_8 s_0_2_8 f_0_2_8 s_0_3_8 f_0_3_8 s_1_0_8 f_1_0_8 s_1_1_8 f_1_1_8 
s_1_2_8 f_1_2_8 s_1_3_8 f_1_3_8 s_0_0_9 f_0_0_9 s_0_1_9 f_0_1_9 s_0_2_9 f_0_2_9 
s_0_3_9 f_0_3_9 s_1_0_9 f_1_0_9 s_1_1_9 f_1_1_9 s_1_2_9 f_1_2_9 s_1_3_9 f_1_3_9 
s_0_0_10 f_0_0_10 s_0_1_10 f_0_1_10 s_0_2_10 f_0_2_10 s_0_3_10 f_0_3_10 s_1_0_10 
f_1_0_10 s_1_1_10 f_1_1_10 s_1_2_10 f_1_2_10 s_1_3_10 f_1_3_10 s_0_0_11 f_0_0_11 
s_0_1_11 f_0_1_11 s_0_2_11 f_0_2_11 s_0_3_11 f_0_3_11 s_1_0_11 f_1_0_11 s_1_1_11 
f_1_1_11 s_1_2_11 f_1_2_11 s_1_3_11 f_1_3_11 

End
